p cnf 96 325
1 -2 -3 0
-1 2 -3 0
1 2 3 0
-1 -2 3 0
-5 6 -7 0
5 -6 -7 0
-5 -6 7 0
5 6 7 0
-8 4 0
-8 7 0
-4 -7 8 0
10 11 -12 0
-10 -11 -12 0
10 -11 12 0
-10 11 12 0
-14 -13 0
-14 -4 0
13 4 14 0
15 -12 0
15 -14 0
12 14 -15 0
16 9 0
16 -15 0
-9 15 -16 0
-17 -8 0
-17 16 0
8 -16 17 0
-18 -3 0
-18 -17 0
3 17 18 0
-20 -19 0
-20 4 0
19 -4 20 0
-20 21 -22 0
20 -21 -22 0
-20 -21 22 0
20 21 22 0
-24 -14 0
-24 -23 0
14 23 24 0
-25 22 0
-25 24 0
-22 -24 25 0
2 25 -26 0
-2 -25 -26 0
2 -25 26 0
-2 25 26 0
27 19 0
27 -12 0
-19 12 -27 0
29 27 0
29 -28 0
-27 28 -29 0
30 -26 0
30 29 0
26 -29 -30 0
31 -28 0
31 -1 0
28 1 -31 0
-32 -5 0
-32 -31 0
5 31 32 0
-33 -21 0
-33 -2 0
21 2 33 0
-34 32 0
-34 33 0
-32 -33 34 0
35 -9 0
35 11 0
9 -11 -35 0
34 -35 -36 0
-34 35 -36 0
34 35 36 0
-34 -35 36 0
-37 7 0
-37 -19 0
-7 19 37 0
38 20 0
38 6 0
-20 -6 -38 0
39 -37 0
39 -38 0
37 38 -39 0
40 -36 0
40 39 0
36 -39 -40 0
28 -4 -41 0
-28 4 -41 0
28 4 41 0
-28 -4 41 0
42 -41 0
42 -5 0
41 5 -42 0
43 13 0
43 38 0
-13 -38 -43 0
42 43 -44 0
-42 -43 -44 0
42 -43 44 0
-42 43 44 0
45 40 0
45 -44 0
-40 44 -45 0
46 -30 0
46 -45 0
30 45 -46 0
47 -10 0
47 -35 0
10 35 -47 0
-48 35 0
-48 -47 0
-35 47 48 0
-49 48 0
-49 35 0
-48 -35 49 0
-50 -4 0
-50 11 0
4 -11 50 0
-51 49 0
-51 -50 0
-49 50 51 0
52 22 0
52 41 0
-22 -41 -52 0
53 -51 0
53 52 0
51 -52 -53 0
-54 -23 0
-54 14 0
23 -14 54 0
-55 -11 0
-55 -54 0
11 54 55 0
55 -5 -56 0
-55 5 -56 0
55 5 56 0
-55 -5 56 0
-57 56 0
-57 14 0
-56 -14 57 0
58 47 0
58 5 0
-47 -5 -58 0
59 -33 0
59 -58 0
33 58 -59 0
57 -59 -60 0
-57 59 -60 0
57 59 60 0
-57 -59 60 0
61 -53 0
61 -60 0
53 60 -61 0
-62 -4 0
-62 -32 0
4 32 62 0
63 -5 0
63 10 0
5 -10 -63 0
64 62 0
64 -63 0
-62 63 -64 0
-65 -61 0
-65 -64 0
61 64 65 0
66 -16 0
66 -56 0
16 56 -66 0
-13 66 -67 0
13 -66 -67 0
-13 -66 67 0
13 66 67 0
68 -65 0
68 -67 0
65 67 -68 0
-69 22 0
-69 28 0
-22 -28 69 0
-69 21 -70 0
69 -21 -70 0
-69 -21 70 0
69 21 70 0
38 -32 -71 0
-38 32 -71 0
38 32 71 0
-38 -32 71 0
-72 -71 0
-72 47 0
71 -47 72 0
5 29 -73 0
-5 -29 -73 0
5 -29 73 0
-5 29 73 0
72 73 -74 0
-72 -73 -74 0
72 -73 74 0
-72 73 74 0
-75 -70 0
-75 74 0
70 -74 75 0
68 -75 -76 0
-68 75 -76 0
68 75 76 0
-68 -75 76 0
13 23 -77 0
-13 -23 -77 0
13 -23 77 0
-13 23 77 0
-55 77 -78 0
55 -77 -78 0
-55 -77 78 0
55 77 78 0
-79 11 0
-79 69 0
-11 -69 79 0
80 -78 0
80 79 0
78 -79 -80 0
-81 -33 0
-81 -8 0
33 8 81 0
-25 -82 0
25 -82 0
-81 -82 -83 0
81 82 -83 0
-81 82 83 0
81 -82 83 0
80 -83 -84 0
-80 83 -84 0
80 83 84 0
-80 -83 84 0
76 84 -85 0
-76 -84 -85 0
76 -84 85 0
-76 84 85 0
86 46 0
86 -85 0
-46 85 -86 0
-87 2 0
-87 19 0
-2 -19 87 0
-89 -47 0
-89 88 0
47 -88 89 0
-66 28 -90 0
66 -28 -90 0
-66 -28 90 0
66 28 90 0
89 -90 -91 0
-89 90 -91 0
89 90 91 0
-89 -90 91 0
77 -1 -92 0
-77 1 -92 0
77 1 92 0
-77 -1 92 0
93 91 0
93 -92 0
-91 92 -93 0
-94 87 0
-94 -93 0
-87 93 94 0
95 -86 0
95 94 0
86 -94 -95 0
18 -95 -96 0
-18 95 -96 0
18 95 96 0
-18 -95 96 0
-24 -48 -43 85 0
16 -43 23 0
-82 -71 -50 84 -62 0
-24 52 -47 0
23 18 27 25 55 56 0
-55 33 -37 0
38 -37 47 92 0
-33 -43 -45 -37 0
-89 85 -17 28 -14 25 0
38 -79 -50 -3 -8 0
16 -10 12 0
86 73 30 0
58 83 -3 -28 0
19 21 -34 88 65 0
46 52 77 -92 0
-23 76 49 0
-66 -5 -34 0
88 -61 0
42 -50 22 -41 0
-66 15 0
94 -37 0
54 -11 0
52 91 3 0
-15 -8 96 82 0
93 -62 23 0
96 65 -11 0
33 5 69 -87 22 42 0
-54 -69 -5 0
-9 94 57 80 -45 0
10 -46 25 -49 0
33 83 91 3 -12 0
82 -2 59 89 -20 35 0
-54 80 0
-18 16 0
-27 -8 -4 0
59 -75 -39 -82 0
9 -30 16 0
-10 53 -48 -46 -63 86 0
39 65 -63 -76 0
52 -13 0
-47 -84 0
61 -47 -57 40 90 0
-61 10 80 0
91 -5 64 74 0
8 86 0
94 61 34 -49 0
71 -17 44 -83 0
-24 -94 40 0
-6 73 12 -89 0
-25 -29 -20 60 0
58 -80 0
25 -17 34 0
-60 9 0
32 -44 -68 -47 0
96 0
